Route #1: 17 40 9 39 12
Route #2: 31 25 55 18 50 32 44
Route #3: 3 24 49 23 56 41 42 64
Route #4: 51 16 63 43 1 33 6
Route #5: 2 62 28 22 61 21
Route #6: 5 47 36 60 20 37 15 57
Route #7: 13 54 19 59 14 53
Route #8: 11 38 10 58 26
Route #9: 7 35 8 46 34 52 27
Route #10: 30 48 29 45 4
Cost 827